AES/1_2_8/ssaes_r1-20_c2_rw1_e8_f0_k1-20_aes_1base_box_aes_mc_bidirectional/ExperimentMinisat_r15_k19cnf_2011-12-02-200357/Result
WARNING: for repeatability, setting FPU to use double precision
============================[ Problem Statistics ]=============================
|                                                                             |
|  Number of variables:          1248                                         |
|  Number of clauses:          200854                                         |
|  Parse time:                   0.11 s                                       |
|  Eliminated clauses:           0.01 Mb                                      |
|  Simplification time:          6.78 s                                       |
|                                                                             |
=============================[ Search Statistics ]==============================
| Conflicts  |          ORIGINAL         |          LEARNT          | Progress |
|            |    Vars  Clauses Literals |    Limit  Clauses Lit/Cl |          |
================================================================================
|        100 |     840   199798  1360492 |    73259      100     18 | 12.180 % |
|        250 |     840   199798  1360492 |    80585      250     21 | 12.180 % |
|        475 |     840   199798  1360492 |    88643      475     22 | 12.180 % |
|        812 |     840   199798  1360492 |    97508      812     22 | 12.180 % |
|       1318 |     840   199798  1360492 |   107258     1318     20 | 12.180 % |
|       2077 |     840   199798  1360492 |   117984     2077     21 | 12.180 % |
|       3216 |     840   199798  1360492 |   129783     3216     21 | 12.180 % |
|       4924 |     840   199798  1360492 |   142761     4924     21 | 12.180 % |
|       7486 |     840   199798  1360492 |   157037     7486     20 | 12.180 % |
|      11330 |     840   199798  1360492 |   172741    11330     20 | 12.180 % |
|      17096 |     840   199798  1360492 |   190015    17096     21 | 12.180 % |
|      25745 |     840   199798  1360492 |   209017    25745     21 | 12.180 % |
|      38719 |     840   199798  1360492 |   229918    38719     18 | 12.180 % |
|      58180 |     840   199798  1360492 |   252910    58180     17 | 12.180 % |
|      87372 |     840   199798  1360492 |   278201    87372     16 | 12.180 % |
===============================================================================
restarts              : 254
conflicts             : 87610          (325 /sec)
decisions             : 100891         (0.00 % random) (374 /sec)
propagations          : 35015217       (129946 /sec)
conflict literals     : 1364653        (44.93 % deleted)
Memory used           : 42.00 MB
CPU time              : 269.459 s

SATISFIABLE
